(set-info :smt-lib-version 2.5)
(set-logic ALL)
(declare-const GEN3 String)
(declare-const GEN2 String)
(declare-const GEN1 String)
(set-option :strings-exp true)
(declare-fun var0 () String)
(assert (str.in.re var0 (re.* (re.* (str.to.re GEN1)))))
(assert (not (str.in.re var0 (re.union (re.+ (str.to.re GEN2)) (re.* (str.to.re GEN3))))))
(check-sat)
(get-model)